
Gurobi 13.0.1 (linux64) logging started Fri Mar 20 15:06:06 2026

Set parameter LogFile to value "logs/150B_6F_deterministic_2026-03-20_15h03m54s.log"
Gurobi Optimizer version 13.0.1 build v13.0.1rc0 (linux64 - "Linux Mint 22")

CPU model: 12th Gen Intel(R) Core(TM) i7-12700, instruction set [SSE2|AVX|AVX2]
Thread count: 20 physical cores, 20 logical processors, using up to 20 threads

Non-default parameters:
TimeLimit  400
SoftMemLimit  10

Optimize a model with 214750 rows, 6840160 columns and 20548898 nonzeros (Max)
Model fingerprint: 0x8b12b408
Model has 6727780 linear objective coefficients
Variable types: 45160 continuous, 6795000 integer (6795000 binary)
Coefficient statistics:
  Matrix range     [8e-05, 2e+04]
  Objective range  [8e+00, 3e+03]
  Bounds range     [1e+00, 1e+05]
  RHS range        [1e+00, 1e+05]

Presolve removed 138743 rows and 5778803 columns
Presolve time: 4.53s
Presolved: 76007 rows, 1061357 columns, 3319093 nonzeros
Variable types: 15945 continuous, 1045412 integer (1045412 binary)
Found heuristic solution: objective -4.88679e+08
Performing another presolve...
Presolve removed 12658 rows and 10 columns (presolve time = 5s)...
Presolve removed 12658 rows and 10 columns (presolve time = 10s)...
Presolve removed 12658 rows and 10 columns (presolve time = 15s)...
Presolve removed 12658 rows and 10 columns (presolve time = 20s)...
Presolve removed 12658 rows and 10 columns (presolve time = 25s)...
Presolve removed 12658 rows and 10 columns (presolve time = 30s)...
Presolve removed 12658 rows and 10 columns (presolve time = 35s)...
Presolve removed 12658 rows and 10 columns (presolve time = 40s)...
Presolve removed 12658 rows and 10 columns (presolve time = 45s)...
Presolve removed 12658 rows and 10 columns (presolve time = 50s)...
